POSCAR
1.0
        3.96124         0.00000         0.00000
       -1.98062         3.43053         0.00000
        0.00000         0.00000        30.00000
    Ni   
    1  
Cartesian
     0.0    0.0     0.0
