POSCAR
1.0
        3.96124         0.00000         0.00000
        0.00000         6.86107         0.00000
        0.00000         0.00000        30.00000
    Ni   
    2  
Cartesian
     1.98062   1.14351        15.00000
     3.96124   4.57405        15.00000
